(set-logic HORN)
(declare-fun assign_214_23_5_abs0 (Int Int Int Int Int) Bool)
(declare-fun assert_205_22_5_abs0 (Int Int Int Int Int) Bool)
(declare-fun assert_185_21_12_abs0 (Int Int Int Int Int) Bool)
(declare-fun while_217_20_1_abs0 (Int Int Int Int Int) Bool)
(declare-fun assign_142_19_1_abs0 (Int Int Int Int Int) Bool)
(declare-fun assign_133_16_5_abs0 (Int Int Int Int Int) Bool)
(declare-fun arrayassign_124_15_5_abs0 (Int Int Int Int Int) Bool)
(declare-fun assert_108_14_12_abs0 (Int Int Int Int Int) Bool)
(declare-fun while_136_13_1_abs0 (Int Int Int Int Int) Bool)
(declare-fun assign_65_12_1_abs0 (Int Int Int Int Int) Bool)
(declare-fun assign_59_10_8_abs0 (Int Int Int Int Int) Bool)
(declare-fun assign_47_9_1_abs0 (Int Int Int Int Int) Bool)
(declare-fun end_abs0 (Int Int Int Int Int) Bool)
(declare-fun start_abs0 (Int Int Int Int Int) Bool)
(assert (forall ((c Int) (N Int) (i Int) (vabs_f_f Int) (a_select Int)) (start_abs0 vabs_f_f a_select c N i)))
(assert (forall ((i Int) (N Int) (c Int) (vabs_0_f_f Int) (a_select Int)) (=> (start_abs0 vabs_0_f_f a_select c N i) (assign_47_9_1_abs0 vabs_0_f_f a_select c N i))))
(assert (forall ((rnd Int) (i Int) (N Int) (c Int) (vabs_0_f_f Int) (a_select Int)) (=> (assign_47_9_1_abs0 vabs_0_f_f a_select c N i) (assign_59_10_8_abs0 vabs_0_f_f a_select c rnd i))))
(assert (forall ((rnd Int) (i Int) (N Int) (c Int) (vabs_0_f_f Int) (a_select Int)) (=> (assign_59_10_8_abs0 vabs_0_f_f a_select c N i) (assign_65_12_1_abs0 vabs_0_f_f a_select rnd N i))))
(assert (forall ((i Int) (N Int) (c Int) (vabs_0_f_f Int) (a_select Int)) (=> (assign_65_12_1_abs0 vabs_0_f_f a_select c N i) (while_136_13_1_abs0 vabs_0_f_f a_select c N 0))))
(assert (forall ((c Int) (N Int) (i Int) (vabs_0_f_f Int) (a_select Int)) (=> (and (while_136_13_1_abs0 vabs_0_f_f a_select c N i) (< i N)) (assert_108_14_12_abs0 vabs_0_f_f a_select c N i))))
(assert (forall ((c Int) (N Int) (i Int) (vabs_0_f_f Int) (a_select Int)) (=> (and (while_136_13_1_abs0 vabs_0_f_f a_select c N i) (not (< i N))) (assign_142_19_1_abs0 vabs_0_f_f a_select c N i))))
(assert (forall ((k Int) (i Int) (N Int) (c Int) (a_select Int)) (=> (and (assert_108_14_12_abs0 k a_select c N i) (<= 0 k) (< k i)) (= a_select (+ (* 2 k) c)))))
(assert (forall ((i Int) (N Int) (c Int) (vabs_0_f_f Int) (a_select Int)) (=> (assert_108_14_12_abs0 vabs_0_f_f a_select c N i) (arrayassign_124_15_5_abs0 vabs_0_f_f a_select c N i))))
(assert (forall ((i Int) (N Int) (c Int) (vabs_0_f_f Int) (a_select Int)) (=> (arrayassign_124_15_5_abs0 vabs_0_f_f a_select c N i) (assign_133_16_5_abs0 vabs_0_f_f (ite (= i vabs_0_f_f) (+ (* 2 i) c) a_select) c N i))))
(assert (forall ((i Int) (N Int) (c Int) (vabs_0_f_f Int) (a_select Int)) (=> (assign_133_16_5_abs0 vabs_0_f_f a_select c N i) (while_136_13_1_abs0 vabs_0_f_f a_select c N (+ i 1)))))
(assert (forall ((i Int) (N Int) (c Int) (vabs_0_f_f Int) (a_select Int)) (=> (assign_142_19_1_abs0 vabs_0_f_f a_select c N i) (while_217_20_1_abs0 vabs_0_f_f a_select c N 0))))
(assert (forall ((c Int) (N Int) (i Int) (vabs_0_f_f Int) (a_select Int)) (=> (and (while_217_20_1_abs0 vabs_0_f_f a_select c N i) (< i N)) (assert_185_21_12_abs0 vabs_0_f_f a_select c N i))))
(assert (forall ((c Int) (N Int) (i Int) (vabs_0_f_f Int) (a_select Int)) (=> (and (while_217_20_1_abs0 vabs_0_f_f a_select c N i) (not (< i N))) (end_abs0 vabs_0_f_f a_select c N i))))
(assert (forall ((k Int) (i Int) (N Int) (c Int) (a_select Int)) (=> (and (assert_185_21_12_abs0 k a_select c N i) (<= 0 k) (< k N)) (= a_select (+ (* 2 k) c)))))
(assert (forall ((i Int) (N Int) (c Int) (vabs_0_f_f Int) (a_select Int)) (=> (assert_185_21_12_abs0 vabs_0_f_f a_select c N i) (assert_205_22_5_abs0 vabs_0_f_f a_select c N i))))
(assert (forall ((i Int) (N Int) (c Int) (a_select Int)) (=> (assert_205_22_5_abs0 i a_select c N i) (= a_select (+ (* 2 i) c)))))
(assert (forall ((i Int) (N Int) (c Int) (vabs_0_f_f Int) (a_select Int)) (=> (assert_205_22_5_abs0 vabs_0_f_f a_select c N i) (assign_214_23_5_abs0 vabs_0_f_f a_select c N i))))
(assert (forall ((i Int) (N Int) (c Int) (vabs_0_f_f Int) (a_select Int)) (=> (assign_214_23_5_abs0 vabs_0_f_f a_select c N i) (while_217_20_1_abs0 vabs_0_f_f a_select c N (+ i 1)))))
(check-sat)